NAME: ETSP
COMMENT: Generated by write_TSPLIB (R package TSP)
TYPE: TSP
DIMENSION: 4
EDGE_WEIGHT_TYPE: EUC_2D
NODE_COORD_SECTION
1 8.630280e+01 7.017881e+00
2 8.409454e+01 4.277034e+00
3 8.091647e+01 4.455363e+00
4 8.501508e+01 1.152098e+00
EOF
